61
100
80	5
79	9
78	9
77	6
76	6
75	5
74	7
73	10
72	3
71	7
70	7
69	2
68	5
67	6
66	5
65	4
64	6
63	9
62	11
61	10
60	9
59	11
58	4
57	7
56	7
55	5
54	6
53	11
52	6
51	9
50	7
49	2
48	4
47	4
46	9
45	7
44	7
43	8
42	6
41	1
40	11
39	7
38	8
37	6
36	6
35	5
34	4
33	6
32	6
31	7
30	7
29	4
28	9
27	6
26	5
25	6
24	7
23	7
22	5
21	9
20	7
